
(set-logic ALL) 

(declare-datatype MyList ((Nil) (Cons (head Real) (tail MyList)) )) 
(declare-fun l0 () MyList) 
(declare-fun l1 () MyList) 
(declare-fun l2 () MyList) 
(declare-fun l3 () MyList) 
(declare-fun i0 () Real) 
(declare-fun i1 () Real) 
(assert (or (= l0 Nil) (= l2 Nil)) )
(assert (or (= l1 Nil) (= l3 Nil) (= l2 l2)) )
(assert (not (= l3 Nil)) )
(assert (is-Nil Nil) )
(assert (not (= l2 Nil)) )
(assert (or (is-Cons Nil) (is-Cons Nil) (= l2 Nil)) )
(assert (or (= l2 l3) (is-Nil Nil) (= l1 l1) (= l0 l3)) )
(assert (= l2 Nil) )
(check-sat)
